outputs/case_380.model.txt
management_rules_set_by_authority = True
bank_license_permitted = False
agent_employed_count = 1
bank_operate_broker = False
broker_operate_in_designated_scope = False
broker_charge_fee = 0
broker_disclose_fee_standard = True
guarantee_deposit_amount = 0
guarantee_deposit_minimum = 0
guarantee_deposit_minimum_set_by_authority = True
company_registration_completed = True
agent_type = 1
broker_provide_written_report = True
bank_operate_agent = False
agent_permit_registered = True
insurance_type = 1
agent_prohibited_condition = False
contract_breach_liability_included = True
license_permitted = True
relevant_insurance_subscribed = True
broker_duty_of_care_and_fidelity = True
broker_fulfill_fidelity = True
agent_employed_by_other_agent_company = False
agent_employed_by_bank = False
contract_other_authority_requirements_included = True
contract_commission_standard_included = True
agent_license_and_insurance = True
agent_company_and_bank_employment_ok = True
contract_termination_included = True
relevant_insurance_type_ok = True
agent_employment_adjusted_properly = True
contract_agent_period_included = True
broker_exercise_duty_of_care = True
bank_permitted_to_operate = False
agent_employment_exclusivity_ok = True
contract_conflict_of_interest_prevention_included = True
agent_company_and_bank_registered = True
broker_report_and_fee_disclosed = True
guarantee_deposit_minimum_defined = True
agent_qualification_and_employment_ok = True
contract_financial_account_included = True
contract_dispute_resolution_included = True
contract_law_compliance_included = True
contract_agent_authority_scope_included = True
contract_party_names_included = True
contract_commission_method_included = True
agent_employed_by_broker_company = False
agent_employed_by_notary_company = False
agent_qualification_met = True
agent_management_rules_defined = True
penalty = False
practice_certificate_held = True
contract_prohibited_behavior_included = True
agent_contract_content_compliant = True